120
150
44
59
55
55
48
57
40
60
57
59
44
47
51
58
51
40
46
59
47
58
45
47
55
55
53
42
45
60
48
47
41
47
56
59
47
51
55
49
60
40
49
41
55
51
60
47
47
58
51
57
48
42
45
46
60
53
56
57
53
51
53
42
43
48
59
56
44
46
53
60
60
43
55
53
46
42
59
58
48
51
55
60
60
56
51
48
51
45
51
41
50
54
44
46
41
43
51
44
46
53
45
60
53
45
57
59
44
55
47
48
53
53
44
47
44
58
56
48
47
47
